p tw 120 132
1 2
2 33
3 14
4 5
5 6
6 7
7 8
7 10
8 9
9 16
10 11
11 12
12 13
13 15
14 25
15 16
16 17
17 18
18 19
18 21
19 20
20 21
21 22
22 23
23 24
25 26
26 27
27 28
28 29
29 30
30 31
31 32
31 68
32 34
32 36
33 44
34 35
35 38
36 37
37 38
38 39
39 40
40 41
41 42
42 43
43 45
44 55
45 46
45 48
46 47
47 48
48 49
49 50
50 51
51 52
51 54
52 53
53 54
54 56
55 66
56 57
57 58
58 59
59 60
60 61
61 62
62 63
62 27
63 64
64 65
65 67
66 77
67 27
68 69
69 70
69 120
70 71
71 72
72 73
73 74
73 76
74 75
75 76
76 78
77 88
78 79
79 80
80 81
81 82
82 83
83 84
84 85
85 86
85 90
86 87
87 89
88 99
89 90
90 91
91 92
92 93
93 94
94 95
94 97
95 96
96 102
97 98
98 100
99 110
100 101
101 102
102 103
103 104
104 105
105 106
105 21
106 107
107 108
108 109
109 111
110 3
111 112
111 114
112 113
113 114
114 115
115 116
116 117
117 118
118 119
119 21
120 4
